n = 22;
lu = [|-92, 245
      |112, 375
      |-298, -261
      |-313, -286
      |-311, 202
      |-391, 214
      |238, 291
      |-330, 341
      |-194, 239
      |257, 460
      |-471, 300
      |-33, -6
      |254, 402
      |-366, 166
      |-456, 45
      |-312, 19
      |272, 381
      |-30, 214
      |-173, 27
      |-397, 219
      |-224, 294
      |142, 379|];
